%mem=8GB
%nprocshared=8
#p B3LYP/6-31G(d) scrf=(cpcm,solvent=dichloromethane) polar nosymm

theozyme reactant - dipole for FDB

0 1
C     -7.75400000    -4.58800000     2.96100000
C     -6.52200000    -3.89300000     3.54900000
C     -5.21600000    -4.63000000     3.22200000
C     -3.94200000    -3.92200000     3.70200000
N     -3.88100000    -3.87600000     5.16600000
H     -7.68800000    -4.65100000     1.86700000
H     -7.85600000    -5.61000000     3.34600000
H     -6.64800000    -3.81100000     4.63800000
H     -6.46200000    -2.86500000     3.16800000
H     -5.14100000    -4.75200000     2.13200000
H     -5.24300000    -5.64100000     3.65300000
H     -3.89900000    -2.91800000     3.24200000
H     -3.07500000    -4.47700000     3.32900000
C     -1.45300000    -4.06700000     5.53300000
C     -2.73100000    -3.26100000     5.78800000
C     -2.98900000    -3.14400000     7.30600000
C     -3.95500000    -2.02600000     7.75800000
O     -5.23000000    -2.16700000     7.11700000
C     -4.11100000    -2.03900000     9.27400000
C     -5.26500000    -2.49000000     9.87800000
C     -5.39600000    -2.52600000    11.29200000
C     -6.57900000    -2.98600000    11.93500000
C     -6.68000000    -3.01200000    13.30300000
C     -5.59500000    -2.57200000    14.11400000
O     -5.82400000    -2.64900000    15.45700000
C     -4.78600000    -2.22800000    16.33700000
C     -4.43100000    -2.11700000    13.52900000
C     -4.30800000    -2.08500000    12.11200000
C     -3.13000000    -1.61700000    11.46600000
C     -3.03700000    -1.59600000    10.09300000
H     -1.55700000    -5.07500000     5.94500000
H     -1.23800000    -4.16300000     4.46200000
H     -0.59700000    -3.57900000     6.00800000
H     -3.37400000    -4.10900000     7.65100000
H     -2.03100000    -2.97700000     7.80900000
H     -6.10000000    -2.81400000     9.26300000
H     -2.12900000    -1.22400000     9.62400000
H     -7.41300000    -3.32300000    11.32300000
H     -7.58100000    -3.36300000    13.79700000
H     -3.59300000    -1.77600000    14.12800000
H     -4.54100000    -1.16800000    16.18600000
H     -3.88100000    -2.83100000    16.20400000
H     -2.30000000    -1.26800000    12.07500000
H     -5.17300000    -2.37100000    17.34700000
H     -3.51500000    -1.06300000     7.47000000
H     -5.33400000    -1.39400000     6.52600000
H     -4.71000000    -3.42500000     5.54600000
O     -2.47900000    -1.87800000     5.31300000
H     -1.94300000    -1.93300000     4.50600000
H     -8.67500000    -4.04700000     3.20800000
H     -3.80900000    -0.73600000     5.11200000
O     -4.61800000    -0.18400000     5.26700000
C     -5.11900000     0.33400000     4.10200000
C     -4.46300000     0.19900000     2.87400000
C     -6.33100000     1.03300000     4.16300000
C     -5.02200000     0.76000000     1.72300000
H     -3.51900000    -0.33800000     2.81800000
C     -6.87100000     1.58700000     3.00400000
H     -6.83700000     1.13200000     5.11800000
C     -6.23000000     1.46300000     1.76100000
H     -4.49900000     0.64200000     0.77600000
H     -7.81400000     2.12400000     3.06800000
C     -6.81800000     2.08900000     0.51600000
H     -7.89600000     1.89800000     0.44200000
H     -6.68500000     3.17800000     0.51000000
H     -6.34500000     1.69600000    -0.38900000

