%mem=8GB
%nprocshared=8
#p B3LYP/6-31G(d) scrf=(cpcm,solvent=dichloromethane) polar nosymm

theozyme TS - dipole for FDB

0 1
C     -7.73200000    -3.86000000     3.03900000
C     -6.37300000    -3.46300000     3.62100000
C     -5.28900000    -4.51600000     3.34400000
C     -3.89300000    -4.15000000     3.85400000
N     -3.86200000    -4.11500000     5.32200000
H     -7.67400000    -3.98800000     1.95100000
H     -8.08800000    -4.80200000     3.46700000
H     -6.47400000    -3.29800000     4.70200000
H     -6.05000000    -2.50200000     3.20200000
H     -5.20500000    -4.67100000     2.26000000
H     -5.58600000    -5.48600000     3.76800000
H     -3.58400000    -3.17700000     3.45800000
H     -3.16600000    -4.89300000     3.50800000
C     -1.53100000    -3.41400000     5.42400000
C     -2.81900000    -3.79900000     6.09400000
C     -2.98800000    -3.71400000     7.48300000
C     -4.01500000    -1.92000000     7.68500000
O     -5.03400000    -1.97800000     6.91100000
C     -4.20200000    -1.97000000     9.17100000
C     -5.42500000    -2.31300000     9.71500000
C     -5.62700000    -2.34100000    11.11800000
C     -6.87800000    -2.69400000    11.69900000
C     -7.04500000    -2.71300000    13.06100000
C     -5.96300000    -2.37900000    13.92500000
O     -6.26000000    -2.43700000    15.25400000
C     -5.23200000    -2.11500000    16.18700000
C     -4.73400000    -2.02600000    13.39800000
C     -4.54300000    -2.00200000    11.99000000
C     -3.29400000    -1.64300000    11.40500000
C     -3.13200000    -1.62800000    10.04100000
H     -0.78600000    -3.12700000     6.16700000
H     -1.13400000    -4.26000000     4.84900000
H     -1.67700000    -2.58500000     4.72000000
H     -3.78700000    -4.29600000     7.93300000
H     -2.09200000    -3.62200000     8.08900000
H     -6.24900000    -2.55900000     9.04900000
H     -2.17200000    -1.34600000     9.61100000
H     -7.70700000    -2.95100000    11.04700000
H     -7.99500000    -2.98200000    13.51100000
H     -3.89900000    -1.76600000    14.03900000
H     -4.88200000    -1.08400000    16.05700000
H     -4.37900000    -2.80100000    16.08900000
H     -2.46600000    -1.37400000    12.05900000
H     -5.67800000    -2.22700000    17.17600000
H     -3.16300000    -1.28900000     7.38300000
H     -4.78900000    -1.15600000     5.61000000
H     -4.73800000    -4.28400000     5.80300000
O     -2.36200000    -0.85100000     3.09600000
H     -1.64800000    -0.35200000     3.51400000
H     -8.48900000    -3.09400000     3.24300000
H     -3.11100000    -0.75800000     3.72700000
O     -4.57000000    -0.58400000     4.79000000
C     -5.23000000     0.60800000     4.80300000
C     -4.96100000     1.52800000     3.78100000
C     -6.16500000     0.93900000     5.79400000
C     -5.62000000     2.75500000     3.75500000
H     -4.22300000     1.27100000     3.02500000
C     -6.81400000     2.17400000     5.74900000
H     -6.36700000     0.23200000     6.59300000
C     -6.56300000     3.10400000     4.73200000
H     -5.39300000     3.45700000     2.95500000
H     -7.53400000     2.41700000     6.52900000
C     -7.29500000     4.42600000     4.67500000
H     -8.15900000     4.38200000     3.99700000
H     -7.67500000     4.71500000     5.66200000
H     -6.64600000     5.23200000     4.31700000

